nNurses = 62;
nHours = 35;
minHours = 3;
maxHours = 15;
maxConsec = 6;
maxPresence = 16;
demand = [27, 23, 25, 23, 25, 20, 23, 21, 25, 27, 22, 25, 24, 27, 22, 18, 13, 17, 16, 17, 14, 19, 24, 22, 24, 21, 17, 17, 22, 21, 26, 22, 19, 16, 11];
